NAME : LPS-n12-m132
COMMENT : (Lartu-Peter-Santi Plot, instance 3732 out of 39200. 12 customers.)
TYPE : CVRP
DIMENSION : 12
EDGE_WEIGHT_TYPE : EUC_2D
CAPACITY : 141
NODE_COORD_SECTION
 1 24 43
 2 10 41
 3 20 89
 4 75 95
 5 89 43
 6 44 27
 7 60 17
 8 85 26
 9 82 62
 10 8 23
 11 70 20
 12 71 18
DEMAND_SECTION
1 0
2 118
3 115
4 82
5 104
6 138
7 91
8 69
9 59
10 17
11 65
12 37
DEPOT_SECTION
 1
 -1
EOF
